(declare-fun Constructed_Argument_t () String)
(declare-fun CreateAsClass () Bool)
(declare-fun Constructed_Argument () Real)
(declare-fun ExpandObjSwitcher () Real)
(declare-fun Constructed_Argument_2_t () String)
(declare-fun Constructed_Argument_3_t () String)
(declare-fun Constructed_Argument_3_Array_Length () Int)
(declare-fun CreateAsClass_2 () Bool)
(declare-fun CreateAsClass_3 () Bool)
(assert (= Constructed_Argument_t "number"))
(assert (not CreateAsClass))
(assert (not (= Constructed_Argument 0.0)))
(assert (= ExpandObjSwitcher 4.0))
(assert (= Constructed_Argument_2_t "number"))
(assert (= Constructed_Argument_3_t "array_string"))
(assert (>= Constructed_Argument_3_Array_Length 0))
(assert (not CreateAsClass_2))
(assert CreateAsClass_3)
(check-sat)
